certificates/rado_a11_c155_N21.cnf
c Rad2 upper bound instance: x1 + 11*x2 - x3 = 155, interval [1,21]
p cnf 21 78
1 11 15 0
-1 -11 -15 0
1 2 14 0
-1 -2 -14 0
2 12 15 0
-2 -12 -15 0
2 3 14 0
-2 -3 -14 0
3 13 15 0
-3 -13 -15 0
3 4 14 0
-3 -4 -14 0
4 14 15 0
-4 -14 -15 0
4 5 14 0
-4 -5 -14 0
5 15 0
-5 -15 0
5 6 14 0
-5 -6 -14 0
6 15 16 0
-6 -15 -16 0
6 7 14 0
-6 -7 -14 0
7 15 17 0
-7 -15 -17 0
7 8 14 0
-7 -8 -14 0
8 15 18 0
-8 -15 -18 0
8 9 14 0
-8 -9 -14 0
9 15 19 0
-9 -15 -19 0
9 10 14 0
-9 -10 -14 0
10 15 20 0
-10 -15 -20 0
10 11 14 0
-10 -11 -14 0
11 15 21 0
-11 -15 -21 0
11 12 14 0
-11 -12 -14 0
1 13 0
-1 -13 0
12 13 14 0
-12 -13 -14 0
2 13 14 0
-2 -13 -14 0
13 14 0
-13 -14 0
14 15 0
-14 -15 0
4 13 16 0
-4 -13 -16 0
14 15 16 0
-14 -15 -16 0
5 13 17 0
-5 -13 -17 0
14 16 17 0
-14 -16 -17 0
6 13 18 0
-6 -13 -18 0
14 17 18 0
-14 -17 -18 0
7 13 19 0
-7 -13 -19 0
14 18 19 0
-14 -18 -19 0
8 13 20 0
-8 -13 -20 0
14 19 20 0
-14 -19 -20 0
9 13 21 0
-9 -13 -21 0
14 20 21 0
-14 -20 -21 0
