certificates/rado_a11_c155_N21.drat
-20 -21 0
d -20 -14 -21 0
14 -21 0
-21 0
-14 0
13 0
15 0
20 0
-1 0
-8 0
-5 0
-3 0
-10 0
2 0
7 0
9 0
4 0
6 0
11 0
-12 0
-17 0
-19 0
-16 0
-18 0
0
